(set-info :source |printed by MathSAT|)
(declare-fun A_2 () Int)
(declare-fun .x.6 () Int)
(declare-fun B_2 () Int)
(declare-fun .y.8 () Int)
(declare-fun C_1 () Int)
(declare-fun .y.9 () Int)
(declare-fun D_1 () (Array Int Int))
(declare-fun .x.7 () (Array Int Int))
(declare-fun E_1 () Int)
(declare-fun .x.8 () Int)
(declare-fun F_1 () (Array Int Int))
(declare-fun .x.9 () (Array Int Int))
(declare-fun G_1 () Int)
(declare-fun L_1 () Int)
(declare-fun .y.5 () Int)
(declare-fun .x.10 () Int)
(declare-fun .loc.6 () Bool)
(declare-fun .loc.10 () Bool)
(declare-fun .loc.7 () Bool)
(declare-fun .loc.11 () Bool)
(declare-fun L_2 () Int)
(declare-fun O_0 () Int)
(declare-fun J_2 () Int)
(declare-fun J_3 () Int)
(declare-fun L_3 () Int)
(define-fun .def_8 () Int (! A_2 :next |.x.6|))
(define-fun .def_10 () Int (! B_2 :next |.y.8|))
(define-fun .def_12 () Int (! C_1 :next |.y.9|))
(define-fun .def_14 () (Array Int Int) (! D_1 :next |.x.7|))
(define-fun .def_16 () Int (! E_1 :next |.x.8|))
(define-fun .def_18 () (Array Int Int) (! F_1 :next |.x.9|))
(define-fun .def_20 () Int (! G_1 :next |L_1|))
(define-fun .def_22 () Int (! .y.5 :next |.x.10|))
(define-fun .def_24 () Bool (! .loc.6 :next |.loc.10|))
(define-fun .def_26 () Bool (! .loc.7 :next |.loc.11|))
(define-fun .def_44 () Int (! L_2 :next |.xtv.1|))
(define-fun .def_45 () Int (! O_0 :next |.xtv.2|))
(define-fun .def_49 () Int (! J_2 :next |.xtv.3|))
(define-fun .def_157 () Int (! J_3 :next |.xpv.1|))
(define-fun .def_161 () Int (! L_3 :next |.xpv.2|))
(define-fun .def_88 () Bool (not .def_24))
(define-fun .def_33 () Bool (not .def_26))
(define-fun .def_156 () Bool (! (and .def_33 .def_88) :init true))
(define-fun .def_151 () Bool (not .loc.10))
(define-fun .def_148 () Bool (= .def_18 .x.9))
(define-fun .def_146 () Bool (= .def_14 .x.7))
(define-fun .def_28 () Bool (= .def_16 .x.8))
(define-fun .def_147 () Bool (and .def_28 .def_146))
(define-fun .def_149 () Bool (and .def_147 .def_148))
(define-fun .def_150 () Bool (and .loc.11 .def_149))
(define-fun .def_152 () Bool (and .def_150 .def_151))
(define-fun .def_141 () Bool (= L_1 0))
(define-fun .def_139 () Bool (= .def_20 .x.10))
(define-fun .def_137 () Bool (= .x.6 .def_10))
(define-fun .def_29 () Bool (<= .def_20 .def_12))
(define-fun .def_138 () Bool (and .def_29 .def_137))
(define-fun .def_140 () Bool (and .def_138 .def_139))
(define-fun .def_142 () Bool (and .def_140 .def_141))
(define-fun .def_143 () Bool (and .def_24 .def_142))
(define-fun .def_144 () Bool (and .def_33 .def_143))
(define-fun .def_135 () Bool (= .def_22 .x.10))
(define-fun .def_130 () Bool (<= .def_44 0))
(define-fun .def_131 () Bool (not .def_130))
(define-fun .def_37 () Bool (<= .def_16 0))
(define-fun .def_132 () Bool (or .def_37 .def_131))
(define-fun .def_116 () Bool (<= .def_8 0))
(define-fun .def_79 () Bool (<= .def_49 0))
(define-fun .def_80 () Bool (not .def_79))
(define-fun .def_128 () Bool (or .def_80 .def_116))
(define-fun .def_123 () Int (* (- 1) .def_44))
(define-fun .def_124 () Int (+ .def_20 .def_123))
(define-fun .def_125 () Int (+ .def_16 .def_124))
(define-fun .def_126 () Bool (= .def_125 0))
(define-fun .def_61 () Int (* (- 1) .def_49))
(define-fun .def_119 () Int (+ .def_20 .def_61))
(define-fun .def_120 () Int (+ .def_8 .def_119))
(define-fun .def_121 () Bool (= .def_120 0))
(define-fun .def_117 () Bool (not .def_116))
(define-fun .def_112 () Bool (<= .def_22 .def_20))
(define-fun .def_113 () Bool (not .def_112))
(define-fun .def_108 () Int (* (- 1) L_1))
(define-fun .def_109 () Int (+ .def_20 .def_108))
(define-fun .def_110 () Bool (= .def_109 (- 1)))
(define-fun .def_106 () Bool (and .def_26 .def_88))
(define-fun .def_104 () Int (select .def_14 .def_49))
(define-fun .def_103 () Int (select .def_18 .def_44))
(define-fun .def_105 () Bool (= .def_103 .def_104))
(define-fun .def_107 () Bool (and .def_105 .def_106))
(define-fun .def_111 () Bool (and .def_107 .def_110))
(define-fun .def_114 () Bool (and .def_111 .def_113))
(define-fun .def_38 () Bool (not .def_37))
(define-fun .def_115 () Bool (and .def_38 .def_114))
(define-fun .def_118 () Bool (and .def_115 .def_117))
(define-fun .def_122 () Bool (and .def_118 .def_121))
(define-fun .def_127 () Bool (and .def_122 .def_126))
(define-fun .def_129 () Bool (and .def_127 .def_128))
(define-fun .def_133 () Bool (and .def_129 .def_132))
(define-fun .def_40 () Bool (= .def_8 .x.6))
(define-fun .def_134 () Bool (and .def_40 .def_133))
(define-fun .def_136 () Bool (and .def_134 .def_135))
(define-fun .def_145 () Bool (or .def_136 .def_144))
(define-fun .def_153 () Bool (and .def_145 .def_152))
(define-fun .def_100 () Bool (<= .x.8 0))
(define-fun .def_101 () Bool (not .def_100))
(define-fun .def_97 () Bool (<= .y.8 0))
(define-fun .def_98 () Bool (not .def_97))
(define-fun .def_94 () Bool (<= L_1 0))
(define-fun .def_95 () Bool (not .def_94))
(define-fun .def_92 () Bool (= .y.9 0))
(define-fun .def_87 () Bool (and .loc.10 .def_33))
(define-fun .def_89 () Bool (and .def_87 .def_88))
(define-fun .def_90 () Bool (and .def_40 .def_89))
(define-fun .def_42 () Bool (not .loc.11))
(define-fun .def_91 () Bool (and .def_42 .def_90))
(define-fun .def_93 () Bool (and .def_91 .def_92))
(define-fun .def_96 () Bool (and .def_93 .def_95))
(define-fun .def_99 () Bool (and .def_96 .def_98))
(define-fun .def_102 () Bool (and .def_99 .def_101))
(define-fun .def_154 () Bool (or .def_102 .def_153))
(define-fun .def_85 () Bool (= .def_20 L_1))
(define-fun .def_83 () Bool (= .def_10 .y.8))
(define-fun .def_58 () Bool (<= .def_10 0))
(define-fun .def_81 () Bool (or .def_58 .def_80))
(define-fun .def_75 () Bool (<= .def_45 0))
(define-fun .def_76 () Bool (not .def_75))
(define-fun .def_77 () Bool (or .def_37 .def_76))
(define-fun .def_70 () Int (* (- 1) .def_45))
(define-fun .def_71 () Int (+ .def_16 .def_70))
(define-fun .def_72 () Int (+ .def_12 .def_71))
(define-fun .def_73 () Bool (= .def_72 0))
(define-fun .def_62 () Int (+ .def_12 .def_61))
(define-fun .def_63 () Int (+ .def_10 .def_62))
(define-fun .def_64 () Bool (= .def_63 0))
(define-fun .def_59 () Bool (not .def_58))
(define-fun .def_54 () Int (* (- 1) .y.9))
(define-fun .def_55 () Int (+ .def_12 .def_54))
(define-fun .def_56 () Bool (= .def_55 (- 1)))
(define-fun .def_50 () (Array Int Int) (store .def_14 .def_49 .def_44))
(define-fun .def_51 () Bool (= .x.7 .def_50))
(define-fun .def_46 () (Array Int Int) (store .def_18 .def_45 .def_44))
(define-fun .def_47 () Bool (= .x.9 .def_46))
(define-fun .def_30 () Bool (not .def_29))
(define-fun .def_31 () Bool (and .def_28 .def_30))
(define-fun .def_32 () Bool (and .def_24 .def_31))
(define-fun .def_34 () Bool (and .def_32 .def_33))
(define-fun .def_35 () Bool (and .loc.10 .def_34))
(define-fun .def_39 () Bool (and .def_35 .def_38))
(define-fun .def_41 () Bool (and .def_39 .def_40))
(define-fun .def_43 () Bool (and .def_41 .def_42))
(define-fun .def_48 () Bool (and .def_43 .def_47))
(define-fun .def_52 () Bool (and .def_48 .def_51))
(define-fun .def_57 () Bool (and .def_52 .def_56))
(define-fun .def_60 () Bool (and .def_57 .def_59))
(define-fun .def_65 () Bool (and .def_60 .def_64))
(define-fun .def_74 () Bool (and .def_65 .def_73))
(define-fun .def_78 () Bool (and .def_74 .def_77))
(define-fun .def_82 () Bool (and .def_78 .def_81))
(define-fun .def_84 () Bool (and .def_82 .def_83))
(define-fun .def_86 () Bool (and .def_84 .def_85))
(define-fun .def_155 () Bool (! (or .def_86 .def_154) :trans true))
(define-fun .def_178 () Int (select .def_14 .def_157))
(define-fun .def_177 () Int (select .def_18 .def_161))
(define-fun .def_179 () Bool (= .def_177 .def_178))
(define-fun .def_180 () Bool (not .def_179))
(define-fun .def_173 () Bool (and .def_113 .def_117))
(define-fun .def_174 () Bool (and .def_38 .def_173))
(define-fun .def_169 () Int (* (- 1) .def_157))
(define-fun .def_170 () Int (+ .def_20 .def_169))
(define-fun .def_171 () Int (+ .def_8 .def_170))
(define-fun .def_172 () Bool (= .def_171 0))
(define-fun .def_175 () Bool (and .def_172 .def_174))
(define-fun .def_165 () Int (* (- 1) .def_161))
(define-fun .def_166 () Int (+ .def_20 .def_165))
(define-fun .def_167 () Int (+ .def_16 .def_166))
(define-fun .def_168 () Bool (= .def_167 0))
(define-fun .def_176 () Bool (and .def_168 .def_175))
(define-fun .def_181 () Bool (and .def_176 .def_180))
(define-fun .def_162 () Bool (<= .def_161 0))
(define-fun .def_163 () Bool (not .def_162))
(define-fun .def_164 () Bool (or .def_37 .def_163))
(define-fun .def_182 () Bool (and .def_164 .def_181))
(define-fun .def_158 () Bool (<= .def_157 0))
(define-fun .def_159 () Bool (not .def_158))
(define-fun .def_160 () Bool (or .def_116 .def_159))
(define-fun .def_183 () Bool (and .def_160 .def_182))
(define-fun .def_184 () Bool (and .def_106 .def_183))
(define-fun .def_187 () Bool (! (not .def_184) :invar-property 0))
(assert true)
